Version identifier: 22.1.0.0 | 2022-03-09 | 1a383f8ce
CPXPARAM_Threads                                 1
CPXPARAM_MIP_Strategy_VariableSelect             3
CPXPARAM_TimeLimit                               599.68400640699997
1 of 1 MIP starts provided solutions.
MIP start 'm1' defined initial solution with objective 92.0000.
Tried aggregator 1 time.
MIP Presolve eliminated 14 rows and 0 columns.
MIP Presolve modified 204 coefficients.
Reduced MIP has 613 rows, 2600 columns, and 32613 nonzeros.
Reduced MIP has 2600 binaries, 0 generals, 0 SOSs, and 0 indicators.
Presolve time = 0.05 sec. (59.90 ticks)
Probing time = 0.01 sec. (9.54 ticks)
Tried aggregator 1 time.
Detecting symmetries...
MIP Presolve modified 11 coefficients.
Reduced MIP has 613 rows, 2600 columns, and 33013 nonzeros.
Reduced MIP has 2600 binaries, 0 generals, 0 SOSs, and 0 indicators.
Presolve time = 0.03 sec. (34.55 ticks)
Probing time = 0.01 sec. (9.61 ticks)
Clique table members: 399.
MIP emphasis: balance optimality and feasibility.
MIP search method: dynamic search.
Parallel mode: none, using 1 thread.
Root relaxation solution time = 0.27 sec. (326.98 ticks)

        Nodes                                         Cuts/
   Node  Left     Objective  IInf  Best Integer    Best Bound    ItCnt     Gap

*     0+    0                           92.0000     5050.0000              --- 
      0     0      100.0000   441       92.0000      100.0000     2293    8.70%
      0     0      100.0000   338       92.0000      Cuts: 13     4922    8.70%
      0     0      100.0000   333       92.0000       Cuts: 9     6312    8.70%
Detecting symmetries...
      0     2      100.0000   199       92.0000      100.0000     6312    8.70%
Elapsed time = 10.24 sec. (11070.37 ticks, tree = 0.01 MB, solutions = 1)
      1     3       99.9778   463       92.0000      100.0000    10396    8.70%
      2     4      100.0000   353       92.0000      100.0000    13254    8.70%
      3     4       98.9032   448       92.0000      100.0000    17207    8.70%
      5     5       99.0000   459       92.0000      100.0000    20455    8.70%
      7     7      100.0000   371       92.0000      100.0000    25429    8.70%
      9     9      100.0000   367       92.0000      100.0000    25717    8.70%
     10    10      100.0000   317       92.0000      100.0000    26278    8.70%
     12    12      100.0000   332       92.0000      100.0000    27754    8.70%
     13    13       99.8105   364       92.0000      100.0000    30021    8.70%
     18    18      100.0000   335       92.0000      100.0000    33071    8.70%
Elapsed time = 15.26 sec. (16935.64 ticks, tree = 0.08 MB, solutions = 1)
     23    23       99.7931   380       92.0000      100.0000    36335    8.70%
     28    28       99.8571   390       92.0000      100.0000    42469    8.70%
     33    33       99.7494   394       92.0000      100.0000    48636    8.70%
     38    38       99.8022   368       92.0000      100.0000    52395    8.70%
     41    41      100.0000   297       92.0000      100.0000    55868    8.70%
     43    43      100.0000   274       92.0000      100.0000    61808    8.70%
     47    46       99.0000   400       92.0000      100.0000    66272    8.70%
     51    48       99.0000   367       92.0000      100.0000    71228    8.70%
     55    50       99.0000   365       92.0000      100.0000    81382    8.70%
     59    52       99.6957   371       92.0000      100.0000    86431    8.70%
Elapsed time = 25.17 sec. (28158.67 ticks, tree = 0.28 MB, solutions = 1)
     62    55       99.9231   355       92.0000      100.0000    94082    8.70%
     66    57       99.0000   356       92.0000      100.0000   101394    8.70%
     70    61       99.0000   320       92.0000      100.0000   105897    8.70%
     75    66       99.0000   298       92.0000      100.0000   109832    8.70%
     83    72       99.0000   265       92.0000      100.0000   113480    8.70%
     89    75       98.2222   242       92.0000      100.0000   118757    8.70%
     97    80       98.6364   234       92.0000      100.0000   123945    8.70%
    104    85       99.0000   178       92.0000      100.0000   127473    8.70%
    110    89       99.0000   206       92.0000      100.0000   133049    8.70%
    116    94       99.0000   199       92.0000      100.0000   137707    8.70%
Elapsed time = 36.93 sec. (40329.37 ticks, tree = 0.50 MB, solutions = 1)
    123   100       99.0000   196       92.0000      100.0000   141530    8.70%
    127   103       99.0000   215       92.0000      100.0000   147456    8.70%
    133   105       97.8000   252       92.0000      100.0000   155068    8.70%
    139   108       97.5000   188       92.0000      100.0000   160991    8.70%
    147   115       96.0000   178       92.0000      100.0000   165285    8.70%
    159   121       96.0000   130       92.0000      100.0000   171142    8.70%
    171   125       96.0000   137       92.0000      100.0000   178037    8.70%
    185   129       96.0000   122       92.0000      100.0000   184980    8.70%
    195   131       99.0000   321       92.0000      100.0000   190850    8.70%
    201   135       98.4000   308       92.0000      100.0000   196324    8.70%
Elapsed time = 47.44 sec. (50800.13 ticks, tree = 0.75 MB, solutions = 1)
    207   141       99.0000   234       92.0000      100.0000   199404    8.70%
    213   146       99.0000   160       92.0000      100.0000   205153    8.70%
    220   151       99.0000   159       92.0000      100.0000   208065    8.70%
    227   155       98.5385   239       92.0000      100.0000   214067    8.70%
    233   159       99.0000   112       92.0000      100.0000   218666    8.70%
    239   162       98.2500   264       92.0000      100.0000   224656    8.70%
    244   164       98.1250   221       92.0000      100.0000   231177    8.70%
    248   166       98.5489   287       92.0000      100.0000   237757    8.70%
    254   170       99.0000   183       92.0000      100.0000   243939    8.70%
    260   172       98.0000   134       92.0000      100.0000   250502    8.70%
Elapsed time = 58.53 sec. (62062.88 ticks, tree = 0.99 MB, solutions = 1)
    266   176       97.0000   247       92.0000      100.0000   258938    8.70%
    272   179       97.4078   261       92.0000      100.0000   267289    8.70%
    280   186       97.0000   131       92.0000      100.0000   272597    8.70%
    289   194       97.0000   126       92.0000      100.0000   277366    8.70%
    298   201       97.0000   112       92.0000      100.0000   283975    8.70%
    307   207       96.0000    54       92.0000      100.0000   289976    8.70%
    321   218       95.0000    44       92.0000      100.0000   294032    8.70%
*   331   212      integral     0       95.0000      100.0000   297073    5.26%
    333   212       99.0000   344       95.0000      100.0000   300554    5.26%
    340   219       99.0000   292       95.0000      100.0000   302215    5.26%
    347   226       99.0000   287       95.0000      100.0000   304486    5.26%
Elapsed time = 69.25 sec. (72689.85 ticks, tree = 1.31 MB, solutions = 2)
    354   232       99.0000   240       95.0000      100.0000   307211    5.26%
    360   236       97.0000   158       95.0000      100.0000   312769    5.26%
    369   242       96.0000   190       95.0000      100.0000   318261    5.26%
    382   245       96.0000   166       95.0000      100.0000   325768    5.26%
    398   249       99.7931   374       95.0000      100.0000   335064    5.26%
    406   256       99.0000   251       95.0000      100.0000   336126    5.26%
    412   261       98.0000   229       95.0000      100.0000   340171    5.26%
    419   267       97.0000   136       95.0000      100.0000   344851    5.26%
    429   276       97.0000    88       95.0000      100.0000   349159    5.26%
*   443   236      integral     0       96.0000      100.0000   354782    4.17%
    444   236       99.7805   378       96.0000      100.0000   357056    4.17%
Elapsed time = 80.27 sec. (83524.82 ticks, tree = 1.38 MB, solutions = 3)
    450   241       99.0000   295       96.0000      100.0000   360373    4.17%
    457   247       98.0000   234       96.0000      100.0000   364280    4.17%
    465   252    infeasible             96.0000      100.0000   369801    4.17%
    477   254    infeasible             96.0000      100.0000   378504    4.17%
    478   255      100.0000   230       96.0000      100.0000   384515    4.17%
    481   256       99.0000   386       96.0000      100.0000   390544    4.17%
    486   261       99.0000   257       96.0000      100.0000   394354    4.17%
    492   267       99.0000   151       96.0000      100.0000   399422    4.17%
    499   271       99.0000   168       96.0000      100.0000   405592    4.17%
    505   275       99.0000   148       96.0000      100.0000   410351    4.17%
Elapsed time = 90.90 sec. (94312.34 ticks, tree = 1.62 MB, solutions = 3)
    511   279       99.0000   165       96.0000      100.0000   416503    4.17%
    518   283       98.8462   226       96.0000      100.0000   424159    4.17%
    523   287       98.0000   137       96.0000      100.0000   429955    4.17%
    532   292    infeasible             96.0000      100.0000   437785    4.17%
    538   294      100.0000   187       96.0000      100.0000   442843    4.17%
    542   298      100.0000   186       96.0000      100.0000   447906    4.17%
    546   301       99.0000   283       96.0000      100.0000   452941    4.17%
    552   307       99.0000   209       96.0000      100.0000   456329    4.17%
    560   313       97.0000   155       96.0000      100.0000   462122    4.17%
    569   316    infeasible             96.0000      100.0000   470899    4.17%
Elapsed time = 101.35 sec. (104746.57 ticks, tree = 1.88 MB, solutions = 3)
    577   318      100.0000   184       96.0000      100.0000   480803    4.17%
    580   321      100.0000   189       96.0000      100.0000   486341    4.17%
    584   324       99.0000   181       96.0000      100.0000   491175    4.17%
    590   329       98.0000   163       96.0000      100.0000   497220    4.17%
    598   334       97.0000   216       96.0000      100.0000   502714    4.17%
    606   342       97.0000    56       96.0000      100.0000   508305    4.17%
    613   343       99.9848   360       96.0000      100.0000   519449    4.17%
    618   346       98.0000   241       96.0000      100.0000   525436    4.17%
    623   350       97.0000   191       96.0000      100.0000   531309    4.17%
    649   357       99.0000   245       96.0000      100.0000   559310    4.17%
Elapsed time = 114.96 sec. (118433.10 ticks, tree = 2.12 MB, solutions = 3)
    670   368    infeasible             96.0000      100.0000   582955    4.17%
    686   378       99.7857   341       96.0000      100.0000   604395    4.17%
    699   388      100.0000   178       96.0000      100.0000   626847    4.17%
    710   395      100.0000   116       96.0000      100.0000   651051    4.17%
    728   410       99.0000   240       96.0000      100.0000   670085    4.17%
    750   425       97.0000   144       96.0000      100.0000   693399    4.17%
    779   442       97.0000   242       96.0000      100.0000   713627    4.17%
    806   462       99.0000   173       96.0000      100.0000   733207    4.17%
*   819   353      integral     0       97.0000      100.0000   739355    3.09%
    832   357       98.0000   154       97.0000      100.0000   756221    3.09%
    856   368       99.0000   184       97.0000      100.0000   773741    3.09%
Elapsed time = 153.36 sec. (157714.81 ticks, tree = 2.14 MB, solutions = 4)
    894   381       98.0000   110       97.0000      100.0000   805657    3.09%
    915   392       99.0000   241       97.0000      100.0000   831109    3.09%
    937   403       98.0000   235       97.0000      100.0000   855551    3.09%
    960   410       98.0000   235       97.0000      100.0000   887558    3.09%
    979   413    infeasible             97.0000      100.0000   919534    3.09%
    997   415       98.0000   287       97.0000      100.0000   951730    3.09%
   1019   427       99.0000   236       97.0000      100.0000   974048    3.09%
   1047   431       99.0000   118       97.0000      100.0000  1002566    3.09%
   1069   448       99.0000   196       97.0000      100.0000  1016901    3.09%
   1100   478       98.0000   164       97.0000      100.0000  1027670    3.09%
Elapsed time = 193.09 sec. (197142.36 ticks, tree = 2.79 MB, solutions = 4)
   1123   497       98.0000   152       97.0000      100.0000  1047990    3.09%
   1139   502       99.8125   350       97.0000      100.0000  1077381    3.09%
   1158   514    infeasible             97.0000      100.0000  1099839    3.09%
   1179   517    infeasible             97.0000      100.0000  1126080    3.09%
   1201   525       98.0000    89       97.0000      100.0000  1151632    3.09%
   1229   533       99.9512   275       97.0000      100.0000  1181260    3.09%
   1264   560       98.0000   198       97.0000      100.0000  1193639    3.09%
   1290   570       98.0000    48       97.0000      100.0000  1222188    3.09%
   1311   579       98.0000   139       97.0000      100.0000  1250311    3.09%
   1338   581      100.0000   132       97.0000      100.0000  1283240    3.09%
Elapsed time = 232.15 sec. (236208.29 ticks, tree = 3.45 MB, solutions = 4)
   1362   593       99.6875   272       97.0000      100.0000  1312507    3.09%
   1386   597    infeasible             97.0000      100.0000  1339197    3.09%
   1414   600       99.0000   154       97.0000      100.0000  1365592    3.09%
   1440   615       98.0000   188       97.0000      100.0000  1387391    3.09%
   1463   628    infeasible             97.0000      100.0000  1407934    3.09%
   1487   639       98.0000   146       97.0000      100.0000  1433242    3.09%
   1510   646       99.0000   252       97.0000      100.0000  1452880    3.09%

Performing restart 1

Repeating presolve.
Tried aggregator 1 time.
MIP Presolve eliminated 0 rows and 97 columns.
MIP Presolve modified 7356 coefficients.
Reduced MIP has 613 rows, 2503 columns, and 24318 nonzeros.
Reduced MIP has 2503 binaries, 0 generals, 0 SOSs, and 0 indicators.
Presolve time = 0.02 sec. (21.57 ticks)
Tried aggregator 1 time.
Reduced MIP has 613 rows, 2503 columns, and 24318 nonzeros.
Reduced MIP has 2503 binaries, 0 generals, 0 SOSs, and 0 indicators.
Presolve time = 0.02 sec. (16.67 ticks)
Represolve time = 0.11 sec. (81.40 ticks)
   1512     0      100.0000   372       97.0000      Cuts: 15  1457188    3.09%
   1512     0      100.0000   499       97.0000      Cuts: 35  1459745    3.09%
   1512     0      100.0000   348       97.0000      Cuts: 14  1462391    3.09%
   1512     0      100.0000   438       97.0000      Cuts: 12  1464690    3.09%
   1512     0      100.0000   474       97.0000      Cuts: 43  1467837    3.09%
   1512     0       99.9492   561       97.0000      Cuts: 24  1472491    3.04%
   1512     0       99.0000   546       97.0000     Cuts: 185  1474357    2.06%
   1512     0       99.0000   568       97.0000      Cuts: 95  1477137    2.06%
   1512     2       99.0000   198       97.0000       99.0000  1477137    2.06%
   1522    11       99.0000   347       97.0000       99.0000  1493077    2.06%
   1534    19        cutoff             97.0000       99.0000  1513149    2.06%
Elapsed time = 289.76 sec. (294883.84 ticks, tree = 0.09 MB, solutions = 4)
   1549    23        cutoff             97.0000       99.0000  1539758    2.06%
   1572    32       98.0000   118       97.0000       99.0000  1562909    2.06%
   1591    35       98.0000   167       97.0000       99.0000  1592751    2.06%
   1612    41       98.0000   153       97.0000       99.0000  1623103    2.06%
   1628    44       98.0000   205       97.0000       99.0000  1645892    2.06%
   1645    45    infeasible             97.0000       99.0000  1672768    2.06%
   1665    47       98.0000   163       97.0000       99.0000  1704704    2.06%
   1683    49       98.0000   199       97.0000       99.0000  1735828    2.06%
   1700    51    infeasible             97.0000       99.0000  1761924    2.06%
   1732    56       99.0000   185       97.0000       99.0000  1775163    2.06%
Elapsed time = 327.49 sec. (333904.61 ticks, tree = 0.19 MB, solutions = 4)
   1781    65       98.0000   209       97.0000       99.0000  1785287    2.06%
   1805    78       98.9167   230       97.0000       99.0000  1797777    2.06%
   1845   106       98.0000   150       97.0000       99.0000  1805621    2.06%
   1913   119    infeasible             97.0000       99.0000  1816744    2.06%
   1959   123       98.0000   216       97.0000       99.0000  1829612    2.06%
   1998   134       98.0000   238       97.0000       99.0000  1840082    2.06%
   2042   138       98.0000   187       97.0000       99.0000  1853436    2.06%
   2080   145       98.0000   224       97.0000       99.0000  1866285    2.06%
   2125   155       99.0000   185       97.0000       99.0000  1877354    2.06%
   2152   173       98.0000   134       97.0000       99.0000  1886294    2.06%
Elapsed time = 366.00 sec. (372536.42 ticks, tree = 0.31 MB, solutions = 4)
   2189   178       98.5000   211       97.0000       99.0000  1899168    2.06%
   2230   196    infeasible             97.0000       99.0000  1908103    2.06%
   2263   203       98.0000   148       97.0000       99.0000  1921713    2.06%
   2301   215    infeasible             97.0000       99.0000  1933296    2.06%
   2312   226       99.0000   223       97.0000       99.0000  1936587    2.06%
   2352   265       98.0000   277       97.0000       99.0000  1940045    2.06%
   2399   306       99.0000   148       97.0000       99.0000  1944811    2.06%
   2435   331       98.0000   151       97.0000       99.0000  1955326    2.06%
   2502   343       98.0000   209       97.0000       99.0000  1968016    2.06%
   2542   358       98.0000   177       97.0000       99.0000  1981573    2.06%
Elapsed time = 408.83 sec. (415557.94 ticks, tree = 0.54 MB, solutions = 4)
   2598   375       98.0000   167       97.0000       99.0000  1993065    2.06%
   2671   375       98.0000   257       97.0000       99.0000  2007332    2.06%
   2733   385       99.0000   206       97.0000       99.0000  2023963    2.06%
   2760   390       99.0000   133       97.0000       99.0000  2040806    2.06%
   2787   387    infeasible             97.0000       99.0000  2055265    2.06%
   2819   394       98.0000   147       97.0000       99.0000  2069303    2.06%
   2859   399    infeasible             97.0000       99.0000  2082500    2.06%
   2889   401    infeasible             97.0000       99.0000  2095930    2.06%
   2916   403       99.0000   175       97.0000       99.0000  2105311    2.06%
   2945   412       99.0000   150       97.0000       99.0000  2117978    2.06%
Elapsed time = 446.94 sec. (455147.79 ticks, tree = 0.60 MB, solutions = 4)
   2967   407       99.0000   121       97.0000       99.0000  2133881    2.06%
   2999   401       99.0000   154       97.0000       99.0000  2152486    2.06%
   3028   402    infeasible             97.0000       99.0000  2167883    2.06%
   3054   404       99.0000   216       97.0000       99.0000  2179678    2.06%
   3086   435       98.0000   309       97.0000       99.0000  2185718    2.06%
   3121   464       98.0000   165       97.0000       99.0000  2190299    2.06%
   3155   484       98.6667   208       97.0000       99.0000  2199937    2.06%
   3189   492       99.0000   189       97.0000       99.0000  2213926    2.06%
   3228   487       99.0000   189       97.0000       99.0000  2227934    2.06%
   3267   491       98.0000   191       97.0000       99.0000  2240478    2.06%
Elapsed time = 484.64 sec. (494797.58 ticks, tree = 0.69 MB, solutions = 4)
   3324   512       99.0000   204       97.0000       99.0000  2250369    2.06%
   3358   533       99.0000   188       97.0000       99.0000  2260124    2.06%
   3396   544       98.0000   180       97.0000       99.0000  2271641    2.06%
   3432   556       98.0000   169       97.0000       99.0000  2286761    2.06%
   3469   565       98.0000   111       97.0000       99.0000  2301235    2.06%
   3497   576       98.0000   221       97.0000       99.0000  2312584    2.06%
   3545   584       99.0000   179       97.0000       99.0000  2326459    2.06%
   3580   613       98.0000   163       97.0000       99.0000  2334929    2.06%
   3630   626    infeasible             97.0000       99.0000  2345774    2.06%
   3669   640       98.0000   121       97.0000       99.0000  2357293    2.06%
Elapsed time = 523.40 sec. (533782.09 ticks, tree = 0.89 MB, solutions = 4)
   3706   642    infeasible             97.0000       99.0000  2369915    2.06%
   3745   645    infeasible             97.0000       99.0000  2381939    2.06%
   3776   658       99.0000   227       97.0000       99.0000  2392106    2.06%
   3813   674       98.0000   245       97.0000       99.0000  2402692    2.06%
   3848   691       99.0000   219       97.0000       99.0000  2414364    2.06%
   3891   703       98.0000   165       97.0000       99.0000  2426034    2.06%
Starting limited solution polishing.
   3934   713    infeasible             97.0000       99.0000  2437643    2.06%
   3972   727       98.0000   220       97.0000       99.0000  2451224    2.06%
   4008   741       98.9960   264       97.0000       99.0000  2462022    2.06%
   4051   761       99.0000   233       97.0000       99.0000  2471295    2.06%
Elapsed time = 561.30 sec. (572745.30 ticks, tree = 1.03 MB, solutions = 4)
   4091   785       98.5000   205       97.0000       99.0000  2480268    2.06%
   4122   801       98.6000   294       97.0000       99.0000  2488406    2.06%
   4167   814       99.0000   234       97.0000       99.0000  2500901    2.06%
   4199   839       98.0000   197       97.0000       99.0000  2510376    2.06%
   4248   841       98.0000   172       97.0000       99.0000  2525980    2.06%
   4295   845    infeasible             97.0000       99.0000  2540021    2.06%
   4345   856       98.0000   141       97.0000       99.0000  2551729    2.06%
   4365   867       98.7500   260       97.0000       99.0000  2561392    2.06%
   4399   881       98.0000   217       97.0000       99.0000  2571755    2.06%
   4445   897       98.0000   193       97.0000       99.0000  2583457    2.06%
Elapsed time = 599.38 sec. (611596.86 ticks, tree = 1.18 MB, solutions = 4)

Clique cuts applied:  63
Cover cuts applied:  1
Mixed integer rounding cuts applied:  2
Zero-half cuts applied:  28
Gomory fractional cuts applied:  1

Root node processing (before b&c):
  Real time             =   10.20 sec. (11042.40 ticks)
Sequential b&c:
  Real time             =  589.48 sec. (600878.98 ticks)
                          ------------
Total (root+branch&cut) =  599.68 sec. (611921.38 ticks)
Primal:	97
Dual:	99
Status:	Feasible
Time:	599.61
Sequence:
	11
	6
	0
	12
	1
	24
	15
	4
	0
	12
	1
	24
	15
	4
	0
	12
	19
	8
	18
	4
	0
	23
	1
	8
	1
	9
	16
	4
	18
	8
	1
	22
	3
	4
	17
	7
	19
	4
	5
	6
	1
	13
	1
	6
	3
	6
	19
	7
	17
	4
	0
	12
	16
	4
	9
	10
	6
	19
	7
	17
	4
	10
	2
	10
	6
	12
	10
	14
	9
	0
	4
	12
	16
	6
	17
	7
	1
	4
	5
	4
	17
	7
	1
	14
	10
	9
	0
	4
	1
	13
	1
	6
	3
	4
	20
	4
	15
